(set-logic QF_NRA)
(declare-fun duscore1dollarsk!0 () Real)
(declare-fun m () Real)
(declare-fun muscore1dollarsk!1 () Real)
(declare-fun b () Real)
(declare-fun d () Real)
(declare-fun vdesuscore1dollarsk!2 () Real)
(declare-fun z () Real)
(declare-fun v () Real)
(assert (>= duscore1dollarsk!0 0))
(assert (<= (+ (* d d) (* (- 1) (* duscore1dollarsk!0 duscore1dollarsk!0)) (* 2 (* m b)) (* (- 2) (* muscore1dollarsk!1 b))) 0))
(assert (>= vdesuscore1dollarsk!2 0))
(assert (<= (+ (* (- 1) (* d d)) (* (- 2) (* m b)) (* v v) (* 2 (* b z))) 0))
(assert (>= v 0))
(assert (>= d 0))
(assert (not (<= b 0)))
(assert (not (<= (+ (* (- 1) (* duscore1dollarsk!0 duscore1dollarsk!0)) (* (- 2) (* muscore1dollarsk!1 b)) (* v v) (* 2 (* b z))) 0)))
(check-sat)
